c instance by G2
c solution = 01011011101010000
c Known solution cost is 1121 
p cnf 17 30
w 62 81 91 83 71 90 88 15 43 67 21 83 83 58 28 63 94
-6 1 2 0
14 -6 15 0
7 17 -3 0
-1 -8 6 0
3 16 13 0
-14 -8 -7 0
17 7 6 0
-12 10 -11 0
-1 7 17 0
13 17 10 0
-15 17 2 0
3 -7 2 0
4 9 -1 0
10 -12 -7 0
-5 11 14 0
-17 5 4 0
6 -15 -12 0
11 -6 17 0
3 -15 14 0
1 4 12 0
3 13 -4 0
-3 5 -11 0
-3 6 -9 0
8 -4 14 0
5 14 15 0
-7 -16 6 0
6 2 -8 0
16 -7 -10 0
17 -13 9 0
14 10 -17 0
